NAME : amz0811.59565_58065.tour
COMMENT : Cost = 59565_58065
COMMENT : Found by LKH-AMZ [Keld Helsgaun] Sun May 11 12:45:45 2025
COMMENT : TW viol.: 0 #: 0
TYPE : TOUR
DIMENSION : 56
TOUR_SECTION
42
29
19
33
1
3
53
56
8
36
31
50
20
6
21
46
48
44
37
34
54
40
13
22
28
23
25
2
47
49
17
7
55
32
26
30
38
52
18
41
12
9
4
11
16
45
10
35
39
14
15
24
5
43
51
27
-1
EOF
